NAME:100001
COMMENT: From "On the generation of Metric TSP instances with a large integrality gap by branch-and-cut" (Vercesi, Gualandi, Mastrolilli, Gambardella) - https://arxiv.org/abs/2109.02454
TYPE: TSP
DIMENSION: 10
EDGE_WEIGHT_TYPE: EXPLICIT
EDGE_WEIGHT_FORMAT: UPPER_ROW
EDGE_WEIGHT_SECTION:
67 201 267 200 34 134 200 100 34 134 200 267 101 201 133 33 33 266 267 167 67 67 167 167 133 299 333 199 167 233 166 200 332 300 234 100 234 134 68 134 234 168 100 166 66 
EOF